NAME: berlin52
TYPE: TSP
COMMENT: 52 locations in Berlin (Groetschel)
DIMENSION: 10
EDGE_WEIGHT_TYPE: EUC_2D
NODE_COORD_SECTION
1 565.0 575.0
2 25.0 185.0
3 345.0 750.0
4 945.0 685.0
5 845.0 655.0
6 880.0 660.0
7 25.0 230.0
8 525.0 1000.0
9 580.0 1175.0
10 650.0 1130.0
EOF

DEMAND_SECTION
  9  9

  1  2  3  4  5  6  7  8  9
  2  3  4  5  6  7  8  9 10

45
  1  2  3
  1  3  3
  1  4  3
  1  5  3
  1  6  3
  1  7  3
  1  8  3
  1  9  3
  1 10  3
  2  3  3
  2  4  3
  2  5  3
  2  6  3
  2  7  3
  2  8  3
  2  9  3
  2 10  3
  3  4  3
  3  5  3
  3  6  3
  3  7  3
  3  8  3
  3  9  3
  3 10  3
  4  5  3
  4  6  3
  4  7  3
  4  8  3
  4  9  3
  4 10  3
  5  6  3
  5  7  3
  5  8  3
  5  9  3
  5 10  3
  6  7  3
  6  8  3
  6  9  3
  6 10  3
  7  8  3
  7  9  3
  7 10  3
  8  9  3
  8 10  3
  9 10  3
